c turning on binary mode checking
c parsing input formula with 259840 variables and 1039929 clauses
c finished parsing, read 3312026 bytes from proof file
c detected empty clause; start verification via backward checking
c 7246 of 1039929 clauses in core                            
c 2832 of 126852 lemmas in core using 195026 resolution steps
c 0 RAT lemmas in core; 1202 redundant literals in core lemmas
s VERIFIED
c verification time: 1.744 seconds
